NAME : oliver30.opt.tour
COMMENT : Optimal tour for oliver30.tsp
TYPE : TOUR
DIMENSION : 30
TOUR_SECTION
22
23
24
25
28
26
27
29
30
1
2
3
4
6
5
7
8
9
10
11
12
13
14
15
16
17
19
18
20
21
-1
EOF
